
Gurobi 8.1.0 (win64, Python) logging started 03/20/19 23:22:17

Academic license - for non-commercial use only

Gurobi 8.1.0 (win64, Python) logging started 03/21/19 16:00:17

Academic license - for non-commercial use only

Gurobi 8.1.0 (win64, Python) logging started 03/21/19 17:22:13

Academic license - for non-commercial use only

Gurobi 8.1.0 (linux64, Python) logging started Thu Mar 21 14:42:42 2019

Academic license - for non-commercial use only

Gurobi 8.1.0 (linux64, Python) logging started Thu Mar 21 15:05:08 2019

Academic license - for non-commercial use only

Gurobi 8.1.0 (linux64, Python) logging started Thu Mar 21 15:11:22 2019

Academic license - for non-commercial use only

Gurobi 8.1.0 (linux64, Python) logging started Thu Mar 21 15:51:16 2019

Academic license - for non-commercial use only

Gurobi 8.1.0 (linux64, Python) logging started Thu Mar 21 16:23:42 2019

Academic license - for non-commercial use only

Gurobi 8.1.0 (linux64, Python) logging started Thu Mar 21 16:26:22 2019

Academic license - for non-commercial use only

Gurobi 8.1.0 (linux64, Python) logging started Thu Mar 21 16:27:28 2019

Academic license - for non-commercial use only

Gurobi 8.1.0 (linux64, Python) logging started Thu Mar 21 16:36:42 2019

Academic license - for non-commercial use only

Gurobi 8.1.0 (linux64, Python) logging started Thu Mar 21 17:50:30 2019

Academic license - for non-commercial use only

Gurobi 8.1.0 (linux64, Python) logging started Thu Mar 21 17:52:34 2019

Academic license - for non-commercial use only

Gurobi 8.0.1 (linux64, Python) logging started Fri Mar 22 00:12:55 2019

Academic license - for non-commercial use only

Gurobi 8.0.1 (linux64, Python) logging started Fri Mar 22 01:05:43 2019

Academic license - for non-commercial use only

Gurobi 8.0.1 (linux64, Python) logging started Fri Mar 22 01:06:25 2019

Academic license - for non-commercial use only

Gurobi 8.0.1 (linux64, Python) logging started Fri Mar 22 01:08:59 2019

Academic license - for non-commercial use only

Gurobi 8.0.1 (linux64, Python) logging started Fri Mar 22 01:43:09 2019

Academic license - for non-commercial use only

Gurobi 8.0.1 (linux64, Python) logging started Fri Mar 22 01:49:20 2019

Academic license - for non-commercial use only

Gurobi 8.0.1 (linux64, Python) logging started Fri Mar 22 01:52:30 2019

Academic license - for non-commercial use only

Gurobi 8.0.1 (linux64, Python) logging started Fri Mar 22 10:09:41 2019

Academic license - for non-commercial use only

Gurobi 8.1.0 (linux64, Python) logging started Fri Mar 22 14:21:41 2019

Academic license - for non-commercial use only

Gurobi 8.1.0 (linux64, Python) logging started Fri Mar 22 14:28:05 2019

Academic license - for non-commercial use only

Gurobi 8.0.1 (linux64, Python) logging started Tue Mar 26 19:11:32 2019

Academic license - for non-commercial use only

Gurobi 8.0.1 (linux64, Python) logging started Tue Mar 26 19:16:19 2019

Academic license - for non-commercial use only

Gurobi 8.0.1 (linux64, Python) logging started Tue Mar 26 19:27:12 2019

Academic license - for non-commercial use only

Gurobi 8.0.1 (linux64, Python) logging started Tue Mar 26 19:30:14 2019

Academic license - for non-commercial use only

Gurobi 8.0.1 (linux64, Python) logging started Tue Mar 26 19:36:04 2019

Academic license - for non-commercial use only

Gurobi 8.0.1 (linux64, Python) logging started Tue Mar 26 19:51:59 2019

Academic license - for non-commercial use only

Gurobi 8.0.1 (linux64, Python) logging started Tue Mar 26 19:52:53 2019

Academic license - for non-commercial use only

Gurobi 8.0.1 (linux64, Python) logging started Tue Mar 26 19:57:05 2019

Academic license - for non-commercial use only

Gurobi 8.0.1 (linux64, Python) logging started Tue Mar 26 19:57:23 2019

Academic license - for non-commercial use only

Gurobi 8.0.1 (linux64, Python) logging started Tue Mar 26 20:01:39 2019

Academic license - for non-commercial use only

Gurobi 8.0.1 (linux64, Python) logging started Tue Mar 26 20:03:45 2019

Academic license - for non-commercial use only

Gurobi 8.0.1 (linux64, Python) logging started Tue Mar 26 20:05:27 2019

Academic license - for non-commercial use only

Gurobi 8.0.1 (linux64, Python) logging started Tue Mar 26 20:16:42 2019

Academic license - for non-commercial use only

Gurobi 8.0.1 (linux64, Python) logging started Tue Mar 26 21:17:31 2019

Academic license - for non-commercial use only

Gurobi 8.0.1 (linux64, Python) logging started Tue Mar 26 21:18:37 2019

Academic license - for non-commercial use only

Gurobi 8.0.1 (linux64, Python) logging started Tue Mar 26 23:24:16 2019

Academic license - for non-commercial use only

Gurobi 8.0.1 (linux64, Python) logging started Wed Mar 27 20:34:55 2019

Academic license - for non-commercial use only

Gurobi 8.0.1 (linux64, Python) logging started Wed Mar 27 20:35:17 2019

Academic license - for non-commercial use only

Gurobi 8.0.1 (linux64, Python) logging started Wed Mar 27 21:10:14 2019

Academic license - for non-commercial use only

Gurobi 8.0.1 (linux64, Python) logging started Wed Mar 27 21:11:45 2019

Academic license - for non-commercial use only

Gurobi 8.0.1 (linux64, Python) logging started Wed Mar 27 21:13:29 2019

Academic license - for non-commercial use only

Gurobi 8.0.1 (linux64, Python) logging started Wed Mar 27 21:17:21 2019

Academic license - for non-commercial use only

Gurobi 8.0.1 (linux64, Python) logging started Thu Mar 28 01:42:56 2019

Academic license - for non-commercial use only

Gurobi 8.0.1 (linux64, Python) logging started Thu Mar 28 01:51:58 2019

Academic license - for non-commercial use only

Gurobi 8.0.1 (linux64, Python) logging started Thu Mar 28 02:08:58 2019

Academic license - for non-commercial use only

Gurobi 8.0.1 (linux64, Python) logging started Thu Mar 28 02:09:19 2019

Academic license - for non-commercial use only

Gurobi 8.0.1 (linux64, Python) logging started Thu Mar 28 03:22:02 2019

Academic license - for non-commercial use only

Gurobi 8.0.1 (linux64, Python) logging started Thu Mar 28 13:51:40 2019

Academic license - for non-commercial use only

Gurobi 8.0.1 (linux64, Python) logging started Thu Mar 28 13:53:59 2019

Academic license - for non-commercial use only

Gurobi 8.0.1 (linux64, Python) logging started Thu Mar 28 13:55:53 2019

Academic license - for non-commercial use only

Gurobi 8.0.1 (linux64, Python) logging started Thu Mar 28 13:59:32 2019

Academic license - for non-commercial use only

Gurobi 8.0.1 (linux64, Python) logging started Thu Mar 28 14:00:51 2019

Academic license - for non-commercial use only

Gurobi 8.0.1 (linux64, Python) logging started Thu Mar 28 14:02:54 2019

Academic license - for non-commercial use only

Gurobi 8.0.1 (linux64, Python) logging started Thu Mar 28 14:04:30 2019

Academic license - for non-commercial use only

Gurobi 8.0.1 (linux64, Python) logging started Thu Mar 28 14:04:48 2019

Academic license - for non-commercial use only

Gurobi 8.0.1 (linux64, Python) logging started Thu Mar 28 14:05:49 2019

Academic license - for non-commercial use only

Gurobi 8.0.1 (linux64, Python) logging started Thu Mar 28 14:06:28 2019

Academic license - for non-commercial use only

Gurobi 8.0.1 (linux64, Python) logging started Thu Mar 28 14:20:10 2019

Academic license - for non-commercial use only

Gurobi 8.0.1 (linux64, Python) logging started Thu Mar 28 16:32:44 2019

Academic license - for non-commercial use only

Gurobi 8.0.1 (linux64, Python) logging started Thu Mar 28 16:33:02 2019

Academic license - for non-commercial use only

Gurobi 8.0.1 (linux64, Python) logging started Thu Mar 28 16:33:27 2019

Academic license - for non-commercial use only

Gurobi 8.0.1 (linux64, Python) logging started Thu Mar 28 16:34:23 2019

Academic license - for non-commercial use only

Gurobi 8.0.1 (linux64, Python) logging started Thu Mar 28 16:35:23 2019

Academic license - for non-commercial use only

Gurobi 8.0.1 (linux64, Python) logging started Thu Mar 28 17:22:09 2019

Academic license - for non-commercial use only

Gurobi 8.0.1 (linux64, Python) logging started Thu Mar 28 17:23:47 2019

Academic license - for non-commercial use only

Gurobi 8.0.1 (linux64, Python) logging started Thu Mar 28 17:27:49 2019

Academic license - for non-commercial use only

Gurobi 8.0.1 (linux64, Python) logging started Thu Mar 28 17:29:20 2019

Academic license - for non-commercial use only

Gurobi 8.0.1 (linux64, Python) logging started Thu Mar 28 17:36:07 2019

Academic license - for non-commercial use only

Gurobi 8.0.1 (linux64, Python) logging started Thu Mar 28 17:39:14 2019

Academic license - for non-commercial use only

Gurobi 8.0.1 (linux64, Python) logging started Thu Mar 28 17:43:10 2019

Academic license - for non-commercial use only

Gurobi 8.1.0 (linux64, Python) logging started Thu Mar 28 22:45:18 2019

Academic license - for non-commercial use only

Gurobi 8.1.0 (linux64, Python) logging started Thu Mar 28 22:46:53 2019

Academic license - for non-commercial use only

Gurobi 8.1.0 (linux64, Python) logging started Thu Mar 28 22:47:18 2019

Academic license - for non-commercial use only

Gurobi 8.1.0 (linux64, Python) logging started Thu Mar 28 22:47:34 2019

Academic license - for non-commercial use only

Gurobi 8.1.0 (linux64, Python) logging started Thu Mar 28 22:49:08 2019

Academic license - for non-commercial use only

Gurobi 8.1.0 (linux64, Python) logging started Thu Mar 28 22:50:11 2019

Academic license - for non-commercial use only

Gurobi 8.1.0 (linux64, Python) logging started Thu Mar 28 22:54:45 2019

Academic license - for non-commercial use only

Gurobi 8.1.0 (linux64, Python) logging started Thu Mar 28 22:56:43 2019

Academic license - for non-commercial use only

Gurobi 8.1.0 (linux64, Python) logging started Thu Mar 28 22:59:25 2019

Academic license - for non-commercial use only

Gurobi 8.1.0 (linux64, Python) logging started Thu Mar 28 23:02:27 2019

Academic license - for non-commercial use only

Gurobi 8.1.0 (linux64, Python) logging started Thu Mar 28 23:17:11 2019

Academic license - for non-commercial use only

Gurobi 8.0.1 (linux64, Python) logging started Thu Mar 28 23:59:35 2019

Academic license - for non-commercial use only

Gurobi 8.0.1 (linux64, Python) logging started Fri Mar 29 00:00:15 2019

Academic license - for non-commercial use only

Gurobi 8.0.1 (linux64, Python) logging started Fri Mar 29 00:00:52 2019

Academic license - for non-commercial use only

Gurobi 8.0.1 (linux64, Python) logging started Fri Mar 29 00:05:41 2019

Academic license - for non-commercial use only

Gurobi 8.0.1 (linux64, Python) logging started Fri Mar 29 00:05:54 2019

Academic license - for non-commercial use only

Gurobi 8.0.1 (linux64, Python) logging started Fri Mar 29 00:07:07 2019

Academic license - for non-commercial use only

Gurobi 8.0.1 (linux64, Python) logging started Fri Mar 29 00:08:06 2019

Academic license - for non-commercial use only

Gurobi 8.0.1 (linux64, Python) logging started Fri Mar 29 00:10:37 2019

Academic license - for non-commercial use only

Gurobi 8.0.1 (linux64, Python) logging started Fri Mar 29 00:10:56 2019

Academic license - for non-commercial use only

Gurobi 8.0.1 (linux64, Python) logging started Fri Mar 29 00:11:23 2019

Academic license - for non-commercial use only

Gurobi 8.0.1 (linux64, Python) logging started Fri Mar 29 00:16:27 2019

Academic license - for non-commercial use only

Gurobi 8.0.1 (linux64, Python) logging started Fri Mar 29 00:18:31 2019

Academic license - for non-commercial use only

Gurobi 8.0.1 (linux64, Python) logging started Fri Mar 29 00:19:55 2019

Academic license - for non-commercial use only

Gurobi 8.0.1 (linux64, Python) logging started Fri Mar 29 00:21:49 2019

Academic license - for non-commercial use only

Gurobi 8.0.1 (linux64, Python) logging started Fri Mar 29 00:25:44 2019

Academic license - for non-commercial use only

Gurobi 8.0.1 (linux64, Python) logging started Fri Mar 29 00:27:12 2019

Academic license - for non-commercial use only

Gurobi 8.0.1 (linux64, Python) logging started Fri Mar 29 00:32:52 2019

Academic license - for non-commercial use only

Gurobi 8.0.1 (linux64, Python) logging started Fri Mar 29 00:33:59 2019

Academic license - for non-commercial use only

Gurobi 8.0.1 (linux64, Python) logging started Fri Mar 29 00:41:40 2019

Academic license - for non-commercial use only

Gurobi 8.0.1 (linux64, Python) logging started Fri Mar 29 00:44:13 2019

Academic license - for non-commercial use only

Gurobi 8.0.1 (linux64, Python) logging started Fri Mar 29 00:45:21 2019

Academic license - for non-commercial use only

Gurobi 8.0.1 (linux64, Python) logging started Fri Mar 29 00:46:01 2019

Academic license - for non-commercial use only

Gurobi 8.0.1 (linux64, Python) logging started Fri Mar 29 01:15:09 2019

Academic license - for non-commercial use only

Gurobi 8.0.1 (linux64, Python) logging started Fri Mar 29 01:22:42 2019

Academic license - for non-commercial use only

Gurobi 8.0.1 (linux64, Python) logging started Fri Mar 29 01:22:58 2019

Academic license - for non-commercial use only

Gurobi 8.0.1 (linux64, Python) logging started Fri Mar 29 01:26:01 2019

Academic license - for non-commercial use only

Gurobi 8.0.1 (linux64, Python) logging started Fri Mar 29 01:29:16 2019

Academic license - for non-commercial use only

Gurobi 8.1.0 (linux64, Python) logging started Fri Mar 29 15:12:49 2019

Academic license - for non-commercial use only

Gurobi 8.1.0 (linux64, Python) logging started Fri Mar 29 15:25:00 2019

Academic license - for non-commercial use only

Gurobi 8.1.0 (linux64, Python) logging started Fri Mar 29 15:27:11 2019

Academic license - for non-commercial use only

Gurobi 8.1.0 (linux64, Python) logging started Fri Mar 29 16:50:36 2019

Academic license - for non-commercial use only

Gurobi 8.1.0 (linux64, Python) logging started Fri Mar 29 17:05:39 2019

Academic license - for non-commercial use only

Gurobi 8.1.0 (linux64, Python) logging started Fri Mar 29 20:21:38 2019

Academic license - for non-commercial use only

Gurobi 8.1.0 (linux64, Python) logging started Fri Mar 29 20:24:25 2019

Academic license - for non-commercial use only

Gurobi 8.1.0 (linux64, Python) logging started Fri Mar 29 20:25:03 2019

Academic license - for non-commercial use only

Gurobi 8.1.0 (linux64, Python) logging started Fri Mar 29 20:26:29 2019

Academic license - for non-commercial use only

Gurobi 8.1.0 (linux64, Python) logging started Fri Mar 29 20:27:52 2019

Academic license - for non-commercial use only

Gurobi 8.1.0 (linux64, Python) logging started Fri Mar 29 20:28:16 2019

Academic license - for non-commercial use only

Gurobi 8.1.0 (linux64, Python) logging started Fri Mar 29 20:33:09 2019

Academic license - for non-commercial use only

Gurobi 8.1.0 (linux64, Python) logging started Fri Mar 29 20:36:26 2019

Academic license - for non-commercial use only

Gurobi 8.1.0 (linux64, Python) logging started Fri Mar 29 20:37:52 2019

Academic license - for non-commercial use only

Gurobi 8.1.0 (linux64, Python) logging started Fri Mar 29 20:38:46 2019

Academic license - for non-commercial use only

Gurobi 8.1.0 (linux64, Python) logging started Fri Mar 29 20:41:00 2019

Academic license - for non-commercial use only

Gurobi 8.1.0 (linux64, Python) logging started Fri Mar 29 20:41:13 2019

Academic license - for non-commercial use only

Gurobi 8.1.0 (linux64, Python) logging started Fri Mar 29 20:42:46 2019

Academic license - for non-commercial use only

Gurobi 8.0.1 (linux64, Python) logging started Sat Mar 30 00:39:51 2019

Academic license - for non-commercial use only

Gurobi 8.0.1 (linux64, Python) logging started Sat Mar 30 00:42:54 2019

Academic license - for non-commercial use only

Gurobi 8.0.1 (linux64, Python) logging started Sat Mar 30 00:44:09 2019

Academic license - for non-commercial use only

Gurobi 8.0.1 (linux64, Python) logging started Sat Mar 30 00:47:55 2019

Academic license - for non-commercial use only

Gurobi 8.0.1 (linux64, Python) logging started Sat Mar 30 11:17:15 2019

Academic license - for non-commercial use only

Gurobi 8.0.1 (linux64, Python) logging started Sat Mar 30 11:42:01 2019

Academic license - for non-commercial use only

Gurobi 8.0.1 (linux64, Python) logging started Sat Mar 30 11:43:31 2019

Academic license - for non-commercial use only

Gurobi 8.0.1 (linux64, Python) logging started Sat Mar 30 15:55:42 2019

Academic license - for non-commercial use only

Gurobi 8.0.1 (linux64, Python) logging started Sat Mar 30 15:58:40 2019

Academic license - for non-commercial use only

Gurobi 8.0.1 (linux64, Python) logging started Sat Mar 30 16:43:34 2019

Academic license - for non-commercial use only

Gurobi 8.0.1 (linux64, Python) logging started Sat Mar 30 17:02:30 2019

Academic license - for non-commercial use only

Gurobi 8.0.1 (linux64, Python) logging started Sat Mar 30 17:06:53 2019

Academic license - for non-commercial use only

Gurobi 8.0.1 (linux64, Python) logging started Sat Mar 30 17:07:35 2019

Academic license - for non-commercial use only

Gurobi 8.0.1 (linux64, Python) logging started Sat Mar 30 17:13:35 2019

Academic license - for non-commercial use only

Gurobi 8.0.1 (linux64, Python) logging started Sat Mar 30 17:14:32 2019

Academic license - for non-commercial use only

Gurobi 8.0.1 (linux64, Python) logging started Sat Mar 30 17:15:35 2019

Academic license - for non-commercial use only

Gurobi 8.0.1 (linux64, Python) logging started Sat Mar 30 17:17:46 2019

Academic license - for non-commercial use only

Gurobi 8.0.1 (linux64, Python) logging started Sat Mar 30 17:18:04 2019

Academic license - for non-commercial use only

Gurobi 8.0.1 (linux64, Python) logging started Sat Mar 30 17:18:37 2019

Academic license - for non-commercial use only

Gurobi 8.0.1 (linux64, Python) logging started Sat Mar 30 17:20:22 2019

Academic license - for non-commercial use only

Gurobi 8.0.1 (linux64, Python) logging started Sat Mar 30 17:21:21 2019

Academic license - for non-commercial use only

Gurobi 8.0.1 (linux64, Python) logging started Sat Mar 30 17:22:36 2019

Academic license - for non-commercial use only

Gurobi 8.0.1 (linux64, Python) logging started Sat Mar 30 17:27:01 2019

Academic license - for non-commercial use only

Gurobi 8.0.1 (linux64, Python) logging started Sat Mar 30 17:30:19 2019

Academic license - for non-commercial use only

Gurobi 8.0.1 (linux64, Python) logging started Sat Mar 30 17:34:44 2019

Academic license - for non-commercial use only

Gurobi 8.0.1 (linux64, Python) logging started Sat Mar 30 17:36:18 2019

Academic license - for non-commercial use only

Gurobi 8.0.1 (linux64, Python) logging started Sat Mar 30 17:41:37 2019

Academic license - for non-commercial use only

Gurobi 8.0.1 (linux64, Python) logging started Sat Mar 30 17:44:10 2019

Academic license - for non-commercial use only

Gurobi 8.0.1 (linux64, Python) logging started Sat Mar 30 17:46:38 2019

Academic license - for non-commercial use only

Gurobi 8.0.1 (linux64, Python) logging started Sat Mar 30 17:50:44 2019

Academic license - for non-commercial use only

Gurobi 8.0.1 (linux64, Python) logging started Sat Mar 30 17:51:22 2019

Academic license - for non-commercial use only

Gurobi 8.0.1 (linux64, Python) logging started Sat Mar 30 18:04:08 2019

Academic license - for non-commercial use only

Gurobi 8.0.1 (linux64, Python) logging started Sat Mar 30 18:05:10 2019

Academic license - for non-commercial use only

Gurobi 8.0.1 (linux64, Python) logging started Sat Mar 30 18:16:07 2019

Academic license - for non-commercial use only

Gurobi 8.0.1 (linux64, Python) logging started Sat Mar 30 18:20:55 2019

Academic license - for non-commercial use only

Gurobi 8.0.1 (linux64, Python) logging started Sat Mar 30 18:28:09 2019

Academic license - for non-commercial use only

Gurobi 8.0.1 (linux64, Python) logging started Sat Mar 30 18:28:35 2019

Academic license - for non-commercial use only

Gurobi 8.0.1 (linux64, Python) logging started Sat Mar 30 18:36:55 2019

Academic license - for non-commercial use only

Gurobi 8.0.1 (linux64, Python) logging started Sat Mar 30 18:49:29 2019

Academic license - for non-commercial use only

Gurobi 8.0.1 (linux64, Python) logging started Sat Mar 30 18:50:29 2019

Academic license - for non-commercial use only

Gurobi 8.0.1 (linux64, Python) logging started Sat Mar 30 18:59:36 2019

Academic license - for non-commercial use only

Gurobi 8.0.1 (linux64, Python) logging started Sat Mar 30 19:04:33 2019

Academic license - for non-commercial use only

Gurobi 8.0.1 (linux64, Python) logging started Sat Mar 30 19:12:11 2019

Academic license - for non-commercial use only

Gurobi 8.0.1 (linux64, Python) logging started Sat Mar 30 19:13:11 2019

Academic license - for non-commercial use only

Gurobi 8.0.1 (linux64, Python) logging started Sat Mar 30 19:15:46 2019

Academic license - for non-commercial use only

Gurobi 8.0.1 (linux64, Python) logging started Sat Mar 30 19:16:59 2019

Academic license - for non-commercial use only

Gurobi 8.0.1 (linux64, Python) logging started Sat Mar 30 19:32:25 2019

Academic license - for non-commercial use only

Gurobi 8.0.1 (linux64, Python) logging started Sat Mar 30 20:01:44 2019

Academic license - for non-commercial use only

Gurobi 8.0.1 (linux64, Python) logging started Sat Mar 30 20:08:18 2019

Academic license - for non-commercial use only

Gurobi 8.0.1 (linux64, Python) logging started Sat Mar 30 20:12:23 2019

Academic license - for non-commercial use only

Gurobi 8.0.1 (linux64, Python) logging started Sat Mar 30 23:19:39 2019

Academic license - for non-commercial use only

Gurobi 8.0.1 (linux64, Python) logging started Sun Mar 31 01:19:04 2019

Academic license - for non-commercial use only

Gurobi 8.0.1 (linux64, Python) logging started Sun Mar 31 01:30:53 2019

Academic license - for non-commercial use only

Gurobi 8.0.1 (linux64, Python) logging started Sun Mar 31 01:38:50 2019

Academic license - for non-commercial use only

Gurobi 8.0.1 (linux64, Python) logging started Sun Mar 31 01:46:33 2019

Academic license - for non-commercial use only

Gurobi 8.1.0 (linux64, Python) logging started Mon Apr  1 18:17:34 2019

Academic license - for non-commercial use only

Gurobi 8.1.0 (linux64, Python) logging started Mon Apr  1 18:26:17 2019

Academic license - for non-commercial use only

Gurobi 8.1.0 (linux64, Python) logging started Wed May 15 12:21:18 2019

Academic license - for non-commercial use only

Gurobi 8.1.0 (linux64, Python) logging started Wed May 15 17:27:43 2019

Academic license - for non-commercial use only

Gurobi 8.1.0 (linux64, Python) logging started Wed May 15 18:45:43 2019

Academic license - for non-commercial use only

Gurobi 8.1.0 (linux64, Python) logging started Wed May 15 19:15:42 2019

Academic license - for non-commercial use only

Gurobi 8.1.0 (linux64, Python) logging started Wed May 15 19:15:56 2019

Academic license - for non-commercial use only

Gurobi 8.1.0 (linux64, Python) logging started Wed May 15 19:18:09 2019

Academic license - for non-commercial use only

Gurobi 8.1.0 (linux64, Python) logging started Wed May 15 19:19:03 2019

Academic license - for non-commercial use only

Gurobi 8.1.0 (linux64, Python) logging started Wed May 15 19:19:46 2019

Academic license - for non-commercial use only

Gurobi 8.1.0 (linux64, Python) logging started Wed May 15 19:20:33 2019

Academic license - for non-commercial use only

Gurobi 8.1.0 (linux64, Python) logging started Wed May 15 19:22:14 2019

Academic license - for non-commercial use only

Gurobi 8.1.0 (linux64, Python) logging started Wed May 15 19:22:59 2019

Academic license - for non-commercial use only

Gurobi 8.1.0 (linux64, Python) logging started Wed May 15 19:23:40 2019

Academic license - for non-commercial use only

Gurobi 8.1.0 (linux64, Python) logging started Wed May 15 19:23:59 2019

Academic license - for non-commercial use only

Gurobi 8.1.0 (linux64, Python) logging started Wed May 15 19:24:11 2019

Academic license - for non-commercial use only

Gurobi 8.1.0 (linux64, Python) logging started Wed May 15 19:24:49 2019

Academic license - for non-commercial use only

Gurobi 8.1.0 (linux64, Python) logging started Wed May 15 19:26:33 2019

Academic license - for non-commercial use only

Gurobi 8.1.0 (linux64, Python) logging started Wed May 15 19:26:50 2019

Academic license - for non-commercial use only

Gurobi 8.1.0 (linux64, Python) logging started Wed May 15 19:27:18 2019

Academic license - for non-commercial use only

Gurobi 8.1.0 (linux64, Python) logging started Wed May 15 19:28:46 2019

Academic license - for non-commercial use only

Gurobi 8.1.0 (linux64, Python) logging started Wed May 15 19:30:29 2019

Academic license - for non-commercial use only

Gurobi 8.1.0 (linux64, Python) logging started Wed May 15 20:40:09 2019

Academic license - for non-commercial use only

Gurobi 8.1.0 (linux64, Python) logging started Wed May 15 21:07:55 2019

Academic license - for non-commercial use only

Gurobi 8.1.0 (linux64, Python) logging started Wed May 15 21:36:32 2019

Academic license - for non-commercial use only

Gurobi 8.1.0 (linux64, Python) logging started Wed May 15 21:44:23 2019

Academic license - for non-commercial use only

Gurobi 8.1.0 (linux64, Python) logging started Wed May 15 21:46:49 2019

Academic license - for non-commercial use only

Gurobi 8.1.0 (linux64, Python) logging started Wed May 15 21:48:51 2019

Academic license - for non-commercial use only

Gurobi 8.1.0 (linux64, Python) logging started Wed May 15 21:52:28 2019

Academic license - for non-commercial use only

Gurobi 8.1.0 (linux64, Python) logging started Wed May 15 21:53:29 2019

Academic license - for non-commercial use only

Gurobi 8.1.0 (linux64, Python) logging started Wed May 15 22:02:43 2019

Academic license - for non-commercial use only

Gurobi 8.1.0 (linux64, Python) logging started Wed May 15 22:03:38 2019

Academic license - for non-commercial use only

Gurobi 8.1.0 (linux64, Python) logging started Thu May 16 14:54:52 2019

Academic license - for non-commercial use only

Gurobi 8.1.0 (linux64, Python) logging started Thu May 16 14:56:06 2019

Academic license - for non-commercial use only

Gurobi 8.1.0 (linux64, Python) logging started Thu May 16 14:57:02 2019

Academic license - for non-commercial use only

Gurobi 8.1.0 (linux64, Python) logging started Thu May 16 15:08:52 2019

Academic license - for non-commercial use only

Gurobi 8.1.0 (linux64, Python) logging started Thu May 16 15:10:28 2019

Academic license - for non-commercial use only

Gurobi 8.1.0 (linux64, Python) logging started Thu May 16 15:12:57 2019

Academic license - for non-commercial use only

Gurobi 8.1.0 (linux64, Python) logging started Thu May 16 15:13:35 2019

Academic license - for non-commercial use only

Gurobi 8.1.0 (linux64, Python) logging started Thu May 16 15:15:53 2019

Academic license - for non-commercial use only

Gurobi 8.1.0 (linux64, Python) logging started Thu May 16 16:16:35 2019

Academic license - for non-commercial use only

Gurobi 8.1.0 (linux64, Python) logging started Thu May 16 16:46:09 2019

Academic license - for non-commercial use only

Gurobi 8.1.0 (linux64, Python) logging started Thu May 16 16:47:14 2019

Academic license - for non-commercial use only

Gurobi 8.1.0 (linux64, Python) logging started Thu May 16 16:49:19 2019

Academic license - for non-commercial use only

Gurobi 8.1.0 (linux64, Python) logging started Thu May 16 16:51:08 2019

Academic license - for non-commercial use only

Gurobi 8.1.0 (linux64, Python) logging started Thu May 16 16:54:22 2019

Academic license - for non-commercial use only

Gurobi 8.1.0 (linux64, Python) logging started Thu May 16 16:58:07 2019

Academic license - for non-commercial use only

Gurobi 8.1.0 (linux64, Python) logging started Thu May 16 17:07:31 2019

Academic license - for non-commercial use only

Gurobi 8.1.0 (linux64, Python) logging started Thu May 16 17:11:52 2019

Academic license - for non-commercial use only

Gurobi 8.1.0 (linux64, Python) logging started Thu May 16 17:36:13 2019

Academic license - for non-commercial use only

Gurobi 8.1.0 (linux64, Python) logging started Thu May 16 17:39:16 2019

Academic license - for non-commercial use only

Gurobi 8.1.0 (linux64, Python) logging started Thu May 16 17:42:11 2019

Academic license - for non-commercial use only
